
Gurobi 6.5.2 (win64) logging started 07/24/16 17:38:38


Gurobi 6.5.2 (win64) logging started 07/24/16 17:38:38

Optimize a model with 3969 rows, 792 columns and 9954 nonzeros
Coefficient statistics:
  Matrix range    [6e-08, 4e+02]
  Objective range [1e+00, 1e+00]
  Bounds range    [1e+00, 1e+00]
  RHS range       [6e-06, 2e+03]
Presolve removed 3279 rows and 86 columns
Presolve time: 0.02s
Presolved: 690 rows, 706 columns, 3483 nonzeros
Variable types: 285 continuous, 421 integer (421 binary)

Root relaxation: objective 1.893576e+01, 1852 iterations, 0.06 seconds

    Nodes    |    Current Node    |     Objective Bounds      |     Work
 Expl Unexpl |  Obj  Depth IntInf | Incumbent    BestBd   Gap | It/Node Time

     0     0   18.93576    0  119          -   18.93576      -     -    0s
H    0     0                      20.1328813   18.93576  5.95%     -    0s
     0     0   19.51230    0  110   20.13288   19.51230  3.08%     -    0s
H    0     0                      20.0974554   19.51230  2.91%     -    0s
H    0     0                      20.0437402   19.51230  2.65%     -    0s
     0     0   19.56311    0  107   20.04374   19.56311  2.40%     -    0s
     0     0   19.56311    0   85   20.04374   19.56311  2.40%     -    0s
     0     0   19.60740    0   85   20.04374   19.60740  2.18%     -    0s
     0     0   19.60740    0   85   20.04374   19.60740  2.18%     -    0s
H    0     0                      20.0333120   19.60740  2.13%     -    0s
     0     0   19.61867    0   78   20.03331   19.61867  2.07%     -    0s
H    0     0                      20.0159860   19.61867  1.98%     -    0s
     0     0   19.62852    0   73   20.01599   19.62852  1.94%     -    0s
     0     0   19.63082    0   80   20.01599   19.63082  1.92%     -    0s
     0     0   19.63552    0   80   20.01599   19.63552  1.90%     -    0s
     0     0   19.64381    0   78   20.01599   19.64381  1.86%     -    0s
     0     0   19.64434    0   81   20.01599   19.64434  1.86%     -    0s
     0     0   19.64434    0   70   20.01599   19.64434  1.86%     -    0s
     0     2   19.64434    0   69   20.01599   19.64434  1.86%     -    0s

Cutting planes:
  Gomory: 1
  MIR: 13

Explored 113 nodes (4029 simplex iterations) in 0.33 seconds
Thread count was 8 (of 8 available processors)

Optimal solution found (tolerance 1.00e-04)
Best objective 2.001598604096e+01, best bound 2.001598604096e+01, gap 0.0%

Wrote requested result file 'H1\instance21\\Results21E_Sol6.lp'

